NAME : portcgen-30-1
COMMENT : portcgen N=30, seed=1
TYPE : TSP
DIMENSION : 30
EDGE_WEIGHT_TYPE : EUC_2D
NODE_COORD_SECTION
1 -122991 -250950
2 -89144 -104531
3 -39935 33227
4 -13731 -79028
5 -295152 87722
6 -120444 -192362
7 -251979 71079
8 163953 200694
9 205703 -104574
10 -108089 -111292
11 33261 87137
12 -103639 -31090
13 21380 -6548
14 -214422 326964
15 -67369 61884
16 -89967 -1081
17 -31284 11305
18 -167222 176757
19 1971 216537
20 6212 -231330
21 80456 162523
22 11133 75321
23 237833 14125
24 127215 -40579
25 98660 158082
26 17447 -284231
27 -248296 26781
28 -65885 307520
29 123911 16411
30 297153 -327074
